<instance format="XCSP3" type="COP">
  <variables>
    <array id="x" size="[30]"> 0 1 </array>
  </variables>
  <constraints>
    <sum>
      <list> x[] </list>
      <coeffs> 16 10 18 2 24 9 17 24 1 13 13 7 23 9 13 12 20 5 20 16 25 18 19 15 24 18 7 13 14 19 </coeffs>
      <condition> (le,100) </condition>
    </sum>
  </constraints>
  <objectives>
    <maximize type="sum">
      <list> x[] </list>
      <coeffs> 86 40 30 72 61 52 68 35 1 32 8 29 34 86 33 53 31 1 94 30 79 85 8 29 49 56 10 65 4 68 </coeffs>
    </maximize>
  </objectives>
</instance>
